c FILE /home/rafael/Documents/HappySet/MIHS/inputs/happygen/output/graph_d_regular_k2_p0.3_v100_20241127_084000.txt
c SOURCE This is a d-regular graph formed for the happy graph colouring problem.
c DESCRIPTION It was generated using the problem generator of Rhyd Lewis
c
c GRAPH STATS
c Seed                             = -681547627
c Number of Nodes                  = 100
c Number of colours k              = 2
c Number of pre-assignments        = 30
c Degree of all vertices           = 6
c Density                          = 0.0606061
c 
c The degrees of nodes 1 to 100, respectively, are as follows 
c [6, 6, 6, 6, 6, 6, 6, 6, 6, 6, 6, 6, 6, 6, 6, 6, 6, 6, 6, 6, 6, 6, 6, 6, 6, 6, 
c  6, 6, 6, 6, 6, 6, 6, 6, 6, 6, 6, 6, 6, 6, 6, 6, 6, 6, 6, 6, 6, 6, 6, 6, 6, 
c  6, 6, 6, 6, 6, 6, 6, 6, 6, 6, 6, 6, 6, 6, 6, 6, 6, 6, 6, 6, 6, 6, 6, 6, 6, 
c  6, 6, 6, 6, 6, 6, 6, 6, 6, 6, 6, 6, 6, 6, 6, 6, 6, 6, 6, 6, 6, 6, 6, 6] 
c  
p edge 100 300 2
e 1 24
e 1 54
e 1 64
e 1 75
e 1 76
e 1 89
e 2 3
e 2 9
e 2 32
e 2 71
e 2 78
e 2 92
e 3 18
e 3 39
e 3 44
e 3 51
e 3 67
e 4 14
e 4 43
e 4 64
e 4 89
e 4 92
e 4 100
e 5 10
e 5 26
e 5 42
e 5 51
e 5 52
e 5 62
e 6 15
e 6 59
e 6 63
e 6 68
e 6 71
e 6 74
e 7 9
e 7 21
e 7 31
e 7 51
e 7 64
e 7 76
e 8 17
e 8 53
e 8 55
e 8 68
e 8 72
e 8 92
e 9 19
e 9 87
e 9 94
e 9 98
e 10 31
e 10 38
e 10 69
e 10 78
e 10 87
e 11 17
e 11 73
e 11 75
e 11 92
e 11 96
e 11 100
e 12 46
e 12 53
e 12 62
e 12 63
e 12 73
e 12 94
e 13 20
e 13 58
e 13 70
e 13 83
e 13 91
e 13 100
e 14 15
e 14 22
e 14 36
e 14 56
e 14 77
e 15 16
e 15 19
e 15 77
e 15 78
e 16 19
e 16 27
e 16 29
e 16 31
e 16 66
e 17 22
e 17 30
e 17 55
e 17 71
e 18 49
e 18 50
e 18 55
e 18 61
e 18 81
e 19 38
e 19 61
e 19 79
e 20 34
e 20 58
e 20 70
e 20 79
e 20 87
e 21 23
e 21 35
e 21 40
e 21 65
e 21 96
e 22 69
e 22 71
e 22 74
e 22 87
e 23 28
e 23 32
e 23 37
e 23 56
e 23 59
e 24 36
e 24 56
e 24 72
e 24 80
e 24 86
e 25 64
e 25 74
e 25 75
e 25 85
e 25 89
e 25 91
e 26 41
e 26 49
e 26 54
e 26 95
e 26 96
e 27 43
e 27 46
e 27 62
e 27 66
e 27 99
e 28 39
e 28 42
e 28 46
e 28 80
e 28 98
e 29 35
e 29 65
e 29 74
e 29 83
e 29 84
e 30 32
e 30 41
e 30 45
e 30 60
e 30 79
e 31 44
e 31 47
e 31 80
e 32 38
e 32 77
e 32 83
e 33 42
e 33 50
e 33 70
e 33 78
e 33 79
e 33 93
e 34 51
e 34 52
e 34 71
e 34 77
e 34 90
e 35 48
e 35 49
e 35 62
e 35 84
e 36 45
e 36 48
e 36 76
e 36 86
e 37 48
e 37 52
e 37 82
e 37 84
e 37 90
e 38 60
e 38 61
e 38 79
e 39 78
e 39 82
e 39 83
e 39 86
e 40 59
e 40 67
e 40 76
e 40 88
e 40 89
e 41 57
e 41 84
e 41 90
e 41 98
e 42 44
e 42 98
e 42 99
e 43 57
e 43 69
e 43 77
e 43 83
e 44 45
e 44 93
e 44 95
e 45 58
e 45 85
e 45 94
e 46 62
e 46 68
e 46 75
e 47 49
e 47 54
e 47 61
e 47 73
e 47 91
e 48 67
e 48 82
e 48 94
e 49 59
e 49 78
e 50 56
e 50 86
e 50 90
e 50 95
e 51 70
e 51 76
e 52 57
e 52 83
e 52 97
e 53 65
e 53 68
e 53 88
e 53 97
e 54 56
e 54 75
e 54 81
e 55 65
e 55 66
e 55 70
e 56 61
e 57 68
e 57 73
e 57 95
e 58 59
e 58 60
e 58 93
e 59 82
e 60 85
e 60 93
e 60 98
e 61 63
e 62 98
e 63 84
e 63 89
e 63 99
e 64 73
e 64 92
e 65 75
e 65 90
e 66 67
e 66 81
e 66 99
e 67 72
e 67 79
e 68 81
e 69 87
e 69 94
e 69 99
e 70 97
e 71 74
e 72 82
e 72 91
e 72 100
e 73 94
e 74 77
e 76 80
e 80 85
e 80 100
e 81 88
e 81 97
e 82 100
e 84 85
e 85 95
e 86 93
e 86 99
e 87 92
e 88 89
e 88 91
e 88 97
e 90 95
e 91 96
e 93 96
e 96 97
n 12 2
n 13 1
n 17 1
n 23 2
n 25 2
n 26 1
n 31 1
n 35 1
n 38 2
n 40 2
n 45 1
n 47 1
n 49 1
n 51 2
n 53 2
n 56 2
n 57 2
n 58 1
n 72 2
n 74 2
n 75 2
n 77 2
n 82 2
n 83 1
n 87 1
n 88 2
n 90 1
n 92 1
n 98 2
n 99 1
